Optimal - objective value 861.00000000
      2 x_2                    1                       0
      5 x_5                    1                      -2
      9 x_9                    1                     5.4
     15 x_15                   1                       0
     17 x_17                   1                       0
     24 x_24                   1                       8
     27 x_27                   1                       0
     28 x_28                   1                   -18.6
     33 x_33                   1                       0
     39 x_39                   1                       0
     41 x_41                   1                    18.8
     49 x_49                   1                       0
     53 x_53                   1                      12
     57 x_57                   1                       0
     61 x_61                   1                       0
     64 x_64                   1                       0
     69 x_69                   1                       0
     75 x_75                   1                       0
     76 x_76                   1                       0
     82 x_82                   1                       0
     84 x_84                   1                       0
     91 x_91                   1                      52
     94 x_94                   1                      19
     98 x_98                   1         9.19999999999999
    101 x_101                  1                       0
    111 x_111                  1                    27.4
    114 x_114                  1                       0
    115 x_115                  1                      17
    122 x_122                  1                      10
    129 x_129                  1                       0
    130 x_130                  1                       0
    137 x_137                  1                       0
    140 x_140                  1                       0
    147 x_147                  1                       0
    150 x_150                  1                       0
    153 x_153                  1                      21
    157 x_157                  1         1.59999999999999
    164 x_164                  1                       0
    169 x_169                  1                       4
    171 x_171                  1                   -11.4
    174 x_174                  1                       4
    180 x_180                  1                       0
    187 x_187                  1                       0
    188 x_188                  1                       9
    193 x_193                  1                      -2
    198 x_198                  1                     -19
    203 x_203                  1                    31.2
    205 x_205                  1                       0
    211 x_211                  1                       0
    214 x_214                  1         -8.40000000000001
Optimal - objective value 861.00000000
      2 x_2                    1                       0
      5 x_5                    1                      -2
      9 x_9                    1                     5.4
     15 x_15                   1                       0
     17 x_17                   1                       0
     24 x_24                   1                       8
     27 x_27                   1                       0
     28 x_28                   1                   -18.6
     33 x_33                   1                       0
     39 x_39                   1                       0
     41 x_41                   1                    18.8
     49 x_49                   1                       0
     53 x_53                   1                      12
     57 x_57                   1                       0
     61 x_61                   1                       0
     64 x_64                   1                       0
     69 x_69                   1                       0
     75 x_75                   1                       0
     76 x_76                   1                       0
     82 x_82                   1                       0
     84 x_84                   1                       0
     91 x_91                   1                      52
     94 x_94                   1                      19
     98 x_98                   1         9.19999999999999
    101 x_101                  1                       0
    111 x_111                  1                    27.4
    114 x_114                  1                       0
    115 x_115                  1                      17
    122 x_122                  1                      10
    129 x_129                  1                       0
    130 x_130                  1                       0
    137 x_137                  1                       0
    140 x_140                  1                       0
    147 x_147                  1                       0
    150 x_150                  1                       0
    153 x_153                  1                      21
    157 x_157                  1         1.59999999999999
    164 x_164                  1                       0
    169 x_169                  1                       4
    171 x_171                  1                   -11.4
    174 x_174                  1                       4
    180 x_180                  1                       0
    187 x_187                  1                       0
    188 x_188                  1                       9
    193 x_193                  1                      -2
    198 x_198                  1                     -19
    203 x_203                  1                    31.2
    205 x_205                  1                       0
    211 x_211                  1                       0
    214 x_214                  1         -8.40000000000001
